1,1,3,2,9,3,6,3,8,3,7,3,5,4,10,5,4,3,2,5;3,1,2,1,8,1,5,1,7,2,10,4,6,5,9,4,4,5,1,5;9,1,10,1,6,2,7,1,1,2,4,1,5,5,2,4,8,5,3,5;6,1,2,2,3,3,8,2,5,2,10,3,6,4,1,3,7,4,4,4,9,5;9,2,2,3,10,2,3,4,5,3,8,4,4,2,1,4,7,5;
